NAME : arr.tsp
TIME : 2020-10-29 22:19:06
COMMENT : hello world
DIMENSION : 7
NODE_COORD_SECTION
0 49.3761 8.6694
1 50.2249 30.6452
2 50.7908 53.8306
3 51.6396 73.9919
4 53.6202 92.3387
5 54.7520 19.5565
6 52.2055 19.5565
EOF
